21° run output:
{
    "Function": "kroB750.tsp",
    "Problem dimension": [
        655,
        78,
        228,
        12,
        130,
        428,
        653,
        400,
        659,
        742,
        533,
        442,
        582,
        505,
        104,
        510,
        15,
        701,
        55,
        544,
        390,
        72,
        34,
        255,
        28,
        577,
        192,
        548,
        159,
        334,
        101,
        119,
        339,
        674,
        5,
        650,
        715,
        300,
        271,
        514,
        250,
        536,
        7,
        550,
        675,
        455,
        424,
        169,
        98,
        416,
        199,
        564,
        381,
        378,
        623,
        387,
        279,
        377,
        629,
        435,
        417,
        646,
        386,
        243,
        604,
        426,
        684,
        244,
        632,
        128,
        33,
        406,
        439,
        117,
        233,
        21,
        142,
        676,
        558,
        202,
        361,
        619,
        294,
        488,
        134,
        466,
        704,
        648,
        320,
        578,
        163,
        660,
        257,
        91,
        511,
        290,
        499,
        348,
        137,
        327,
        482,
        452,
        305,
        278,
        298,
        287,
        173,
        522,
        489,
        236,
        722,
        562,
        230,
        568,
        667,
        133,
        454,
        195,
        545,
        546,
        349,
        367,
        92,
        168,
        734,
        200,
        626,
        63,
        433,
        165,
        368,
        664,
        456,
        240,
        683,
        579,
        241,
        118,
        380,
        358,
        94,
        329,
        355,
        421,
        460,
        474,
        441,
        109,
        161,
        147,
        351,
        123,
        657,
        518,
        517,
        67,
        354,
        541,
        468,
        194,
        682,
        11,
        85,
        64,
        589,
        160,
        106,
        310,
        342,
        237,
        18,
        24,
        597,
        503,
        144,
        181,
        586,
        608,
        459,
        73,
        359,
        432,
        465,
        357,
        477,
        32,
        322,
        403,
        112,
        413,
        580,
        492,
        622,
        113,
        610,
        573,
        151,
        601,
        27,
        225,
        350,
        467,
        497,
        66,
        422,
        383,
        484,
        707,
        362,
        301,
        693,
        527,
        146,
        209,
        214,
        382,
        395,
        95,
        82,
        155,
        323,
        746,
        744,
        692,
        79,
        149,
        43,
        396,
        513,
        538,
        469,
        471,
        249,
        711,
        69,
        688,
        658,
        175,
        703,
        515,
        81,
        103,
        412,
        521,
        254,
        740,
        681,
        697,
        702,
        680,
        475,
        318,
        561,
        319,
        239,
        267,
        729,
        51,
        737,
        743,
        210,
        107,
        415,
        530,
        407,
        483,
        3,
        316,
        651,
        557,
        507,
        569,
        182,
        389,
        280,
        570,
        93,
        599,
        148,
        54,
        633,
        220,
        745,
        253,
        120,
        124,
        494,
        593,
        636,
        26,
        618,
        388,
        379,
        274,
        679,
        215,
        284,
        231,
        311,
        289,
        292,
        8,
        116,
        414,
        183,
        162,
        478,
        638,
        404,
        634,
        525,
        500,
        506,
        662,
        35,
        212,
        217,
        732,
        690,
        138,
        172,
        520,
        645,
        62,
        272,
        425,
        154,
        556,
        121,
        363,
        190,
        374,
        423,
        344,
        299,
        38,
        496,
        643,
        131,
        447,
        509,
        346,
        44,
        584,
        451,
        598,
        60,
        419,
        115,
        288,
        259,
        262,
        631,
        552,
        581,
        263,
        485,
        595,
        553,
        617,
        627,
        747,
        30,
        717,
        373,
        446,
        718,
        613,
        49,
        345,
        628,
        445,
        52,
        372,
        540,
        40,
        229,
        449,
        170,
        226,
        523,
        338,
        644,
        716,
        353,
        275,
        719,
        336,
        59,
        105,
        45,
        205,
        539,
        152,
        57,
        221,
        486,
        326,
        317,
        1,
        728,
        473,
        607,
        247,
        480,
        587,
        129,
        609,
        706,
        391,
        39,
        295,
        491,
        157,
        669,
        187,
        270,
        504,
        281,
        208,
        537,
        652,
        308,
        654,
        158,
        234,
        647,
        341,
        600,
        145,
        689,
        588,
        84,
        356,
        583,
        110,
        188,
        235,
        360,
        524,
        430,
        42,
        615,
        458,
        315,
        408,
        398,
        143,
        516,
        203,
        302,
        140,
        4,
        216,
        53,
        366,
        266,
        306,
        2,
        594,
        196,
        673,
        252,
        542,
        198,
        258,
        304,
        13,
        127,
        293,
        71,
        611,
        649,
        328,
        285,
        411,
        640,
        463,
        309,
        347,
        312,
        567,
        571,
        37,
        625,
        164,
        260,
        276,
        46,
        204,
        273,
        444,
        370,
        136,
        48,
        132,
        268,
        19,
        529,
        508,
        436,
        462,
        741,
        738,
        663,
        429,
        150,
        630,
        56,
        672,
        125,
        222,
        434,
        427,
        10,
        178,
        534,
        211,
        735,
        712,
        393,
        665,
        698,
        14,
        596,
        723,
        405,
        448,
        184,
        321,
        6,
        29,
        135,
        691,
        470,
        108,
        592,
        20,
        686,
        385,
        22,
        153,
        725,
        476,
        219,
        705,
        61,
        246,
        333,
        736,
        543,
        713,
        75,
        193,
        602,
        76,
        242,
        457,
        696,
        726,
        437,
        343,
        47,
        186,
        352,
        748,
        324,
        519,
        74,
        708,
        502,
        307,
        565,
        401,
        687,
        461,
        296,
        171,
        337,
        572,
        156,
        397,
        574,
        614,
        501,
        245,
        694,
        443,
        472,
        269,
        739,
        96,
        590,
        325,
        77,
        176,
        332,
        733,
        532,
        227,
        297,
        575,
        420,
        591,
        666,
        174,
        612,
        559,
        563,
        58,
        585,
        68,
        620,
        114,
        369,
        16,
        177,
        720,
        89,
        25,
        65,
        603,
        464,
        678,
        639,
        399,
        526,
        402,
        724,
        0,
        606,
        313,
        410,
        392,
        621,
        576,
        41,
        749,
        185,
        139,
        551,
        36,
        261,
        167,
        479,
        286,
        248,
        418,
        714,
        727,
        668,
        721,
        493,
        223,
        409,
        88,
        709,
        695,
        700,
        340,
        197,
        699,
        656,
        31,
        189,
        97,
        710,
        384,
        330,
        303,
        481,
        111,
        730,
        331,
        364,
        731,
        87,
        641,
        616,
        50,
        206,
        531,
        126,
        375,
        23,
        122,
        677,
        498,
        224,
        453,
        535,
        450,
        179,
        642,
        394,
        80,
        166,
        218,
        256,
        685,
        566,
        232,
        670,
        100,
        335,
        495,
        265,
        191,
        264,
        365,
        238,
        528,
        431,
        624,
        283,
        661,
        637,
        291,
        207,
        90,
        83,
        201,
        490,
        671,
        438,
        560,
        9,
        487,
        440,
        555,
        86,
        512,
        70,
        99,
        141,
        547,
        180,
        282,
        549,
        635,
        102,
        277,
        17,
        314,
        371,
        605,
        251,
        213,
        376,
        554
    ],
    "Global Optimum": 0,
    "Algorithm": "Genetic algorithm",
    "Parameters": {
        "population": 30,
        "offspring": 30,
        "mutation probability": 0.0013333333333333333,
        "crossover probability": 0.9
    },
    "Fitness": 1009344,
    "Solution": [
        655,
        78,
        228,
        12,
        130,
        428,
        653,
        400,
        659,
        742,
        533,
        442,
        582,
        505,
        104,
        510,
        15,
        701,
        55,
        544,
        390,
        72,
        34,
        255,
        28,
        577,
        192,
        548,
        159,
        334,
        101,
        119,
        339,
        674,
        5,
        650,
        715,
        300,
        271,
        514,
        250,
        536,
        7,
        550,
        675,
        455,
        424,
        169,
        98,
        416,
        199,
        564,
        381,
        378,
        623,
        387,
        279,
        377,
        629,
        435,
        417,
        646,
        386,
        243,
        604,
        426,
        684,
        244,
        632,
        128,
        33,
        406,
        439,
        117,
        233,
        21,
        142,
        676,
        558,
        202,
        361,
        619,
        294,
        488,
        134,
        466,
        704,
        648,
        320,
        578,
        163,
        660,
        257,
        91,
        511,
        290,
        499,
        348,
        137,
        327,
        482,
        452,
        305,
        278,
        298,
        287,
        173,
        522,
        489,
        236,
        722,
        562,
        230,
        568,
        667,
        133,
        454,
        195,
        545,
        546,
        349,
        367,
        92,
        168,
        734,
        200,
        626,
        63,
        433,
        165,
        368,
        664,
        456,
        240,
        683,
        579,
        241,
        118,
        380,
        358,
        94,
        329,
        355,
        421,
        460,
        474,
        441,
        109,
        161,
        147,
        351,
        123,
        657,
        518,
        517,
        67,
        354,
        541,
        468,
        194,
        682,
        11,
        85,
        64,
        589,
        160,
        106,
        310,
        342,
        237,
        18,
        24,
        597,
        503,
        144,
        181,
        586,
        608,
        459,
        73,
        359,
        432,
        465,
        357,
        477,
        32,
        322,
        403,
        112,
        413,
        580,
        492,
        622,
        113,
        610,
        573,
        151,
        601,
        27,
        225,
        350,
        467,
        497,
        66,
        422,
        383,
        484,
        707,
        362,
        301,
        693,
        527,
        146,
        209,
        214,
        382,
        395,
        95,
        82,
        155,
        323,
        746,
        744,
        692,
        79,
        149,
        43,
        396,
        513,
        538,
        469,
        471,
        249,
        711,
        69,
        688,
        658,
        175,
        703,
        515,
        81,
        103,
        412,
        521,
        254,
        740,
        681,
        697,
        702,
        680,
        475,
        318,
        561,
        319,
        239,
        267,
        729,
        51,
        737,
        743,
        210,
        107,
        415,
        530,
        407,
        483,
        3,
        316,
        651,
        557,
        507,
        569,
        182,
        389,
        280,
        570,
        93,
        599,
        148,
        54,
        633,
        220,
        745,
        253,
        120,
        124,
        494,
        593,
        636,
        26,
        618,
        388,
        379,
        274,
        679,
        215,
        284,
        231,
        311,
        289,
        292,
        8,
        116,
        414,
        183,
        162,
        478,
        638,
        404,
        634,
        525,
        500,
        506,
        662,
        35,
        212,
        217,
        732,
        690,
        138,
        172,
        520,
        645,
        62,
        272,
        425,
        154,
        556,
        121,
        363,
        190,
        374,
        423,
        344,
        299,
        38,
        496,
        643,
        131,
        447,
        509,
        346,
        44,
        584,
        451,
        598,
        60,
        419,
        115,
        288,
        259,
        262,
        631,
        552,
        581,
        263,
        485,
        595,
        553,
        617,
        627,
        747,
        30,
        717,
        373,
        446,
        718,
        613,
        49,
        345,
        628,
        445,
        52,
        372,
        540,
        40,
        229,
        449,
        170,
        226,
        523,
        338,
        644,
        716,
        353,
        275,
        719,
        336,
        59,
        105,
        45,
        205,
        539,
        152,
        57,
        221,
        486,
        326,
        317,
        1,
        728,
        473,
        607,
        247,
        480,
        587,
        129,
        609,
        706,
        391,
        39,
        295,
        491,
        157,
        669,
        187,
        270,
        504,
        281,
        208,
        537,
        652,
        308,
        654,
        158,
        234,
        647,
        341,
        600,
        145,
        689,
        588,
        84,
        356,
        583,
        110,
        188,
        235,
        360,
        524,
        430,
        42,
        615,
        458,
        315,
        408,
        398,
        143,
        516,
        203,
        302,
        140,
        4,
        216,
        53,
        366,
        266,
        306,
        2,
        594,
        196,
        673,
        252,
        542,
        198,
        258,
        304,
        13,
        127,
        293,
        71,
        611,
        649,
        328,
        285,
        411,
        640,
        463,
        309,
        347,
        312,
        567,
        571,
        37,
        625,
        164,
        260,
        276,
        46,
        204,
        273,
        444,
        370,
        136,
        48,
        132,
        268,
        19,
        529,
        508,
        436,
        462,
        741,
        738,
        663,
        429,
        150,
        630,
        56,
        672,
        125,
        222,
        434,
        427,
        10,
        178,
        534,
        211,
        735,
        712,
        393,
        665,
        698,
        14,
        596,
        723,
        405,
        448,
        184,
        321,
        6,
        29,
        135,
        691,
        470,
        108,
        592,
        20,
        686,
        385,
        22,
        153,
        725,
        476,
        219,
        705,
        61,
        246,
        333,
        736,
        543,
        713,
        75,
        193,
        602,
        76,
        242,
        457,
        696,
        726,
        437,
        343,
        47,
        186,
        352,
        748,
        324,
        519,
        74,
        708,
        502,
        307,
        565,
        401,
        687,
        461,
        296,
        171,
        337,
        572,
        156,
        397,
        574,
        614,
        501,
        245,
        694,
        443,
        472,
        269,
        739,
        96,
        590,
        325,
        77,
        176,
        332,
        733,
        532,
        227,
        297,
        575,
        420,
        591,
        666,
        174,
        612,
        559,
        563,
        58,
        585,
        68,
        620,
        114,
        369,
        16,
        177,
        720,
        89,
        25,
        65,
        603,
        464,
        678,
        639,
        399,
        526,
        402,
        724,
        0,
        606,
        313,
        410,
        392,
        621,
        576,
        41,
        749,
        185,
        139,
        551,
        36,
        261,
        167,
        479,
        286,
        248,
        418,
        714,
        727,
        668,
        721,
        493,
        223,
        409,
        88,
        709,
        695,
        700,
        340,
        197,
        699,
        656,
        31,
        189,
        97,
        710,
        384,
        330,
        303,
        481,
        111,
        730,
        331,
        364,
        731,
        87,
        641,
        616,
        50,
        206,
        531,
        126,
        375,
        23,
        122,
        677,
        498,
        224,
        453,
        535,
        450,
        179,
        642,
        394,
        80,
        166,
        218,
        256,
        685,
        566,
        232,
        670,
        100,
        335,
        495,
        265,
        191,
        264,
        365,
        238,
        528,
        431,
        624,
        283,
        661,
        637,
        291,
        207,
        90,
        83,
        201,
        490,
        671,
        438,
        560,
        9,
        487,
        440,
        555,
        86,
        512,
        70,
        99,
        141,
        547,
        180,
        282,
        549,
        635,
        102,
        277,
        17,
        314,
        371,
        605,
        251,
        213,
        376,
        554
    ],
    "Nb of functions evaluations": 50010,
    "Computational time in seconds": 848.0623383522034,
    "Stopping criterion in evaluations": 50000
}